c "319030.clq"
p edge 200 784
e 1 5
e 1 6
e 1 7
e 1 17
e 1 18
e 1 20
e 1 26
e 1 31
e 1 32
e 1 41
e 1 48
e 1 52
e 1 62
e 1 64
e 1 65
e 1 80
e 1 82
e 1 89
e 1 100
e 1 116
e 1 159
e 1 188
e 2 5
e 2 6
e 2 8
e 2 9
e 2 12
e 2 22
e 2 25
e 2 33
e 2 34
e 2 36
e 2 38
e 2 39
e 2 48
e 2 51
e 2 55
e 2 56
e 2 86
e 2 107
e 2 112
e 2 119
e 2 123
e 2 126
e 2 130
e 2 133
e 2 149
e 2 159
e 2 180
e 2 196
e 3 5
e 3 7
e 3 9
e 3 13
e 3 14
e 3 16
e 3 32
e 3 43
e 3 46
e 3 52
e 3 76
e 3 78
e 3 136
e 3 140
e 4 5
e 4 6
e 4 10
e 4 12
e 4 13
e 4 19
e 4 20
e 4 21
e 4 24
e 4 27
e 4 28
e 4 29
e 4 35
e 4 36
e 4 37
e 4 38
e 4 50
e 4 58
e 4 60
e 4 85
e 4 97
e 4 106
e 4 128
e 4 147
e 4 148
e 4 152
e 4 155
e 4 159
e 4 166
e 4 197
e 5 6
e 5 7
e 5 8
e 5 13
e 5 14
e 5 15
e 5 16
e 5 17
e 5 19
e 5 24
e 5 29
e 5 30
e 5 32
e 5 44
e 5 47
e 5 50
e 5 57
e 5 60
e 5 73
e 5 75
e 5 76
e 5 79
e 5 80
e 5 82
e 5 83
e 5 89
e 5 98
e 5 104
e 5 109
e 5 113
e 5 117
e 5 126
e 5 131
e 5 142
e 5 149
e 5 180
e 5 181
e 6 7
e 6 8
e 6 9
e 6 11
e 6 14
e 6 18
e 6 20
e 6 21
e 6 25
e 6 28
e 6 38
e 6 42
e 6 46
e 6 53
e 6 55
e 6 56
e 6 73
e 6 93
e 6 102
e 6 104
e 6 105
e 6 122
e 6 127
e 6 136
e 6 138
e 6 140
e 6 146
e 6 147
e 6 154
e 6 180
e 6 187
e 7 8
e 7 10
e 7 11
e 7 15
e 7 19
e 7 21
e 7 24
e 7 26
e 7 79
e 7 116
e 7 179
e 7 191
e 7 192
e 8 9
e 8 10
e 8 11
e 8 12
e 8 23
e 8 26
e 8 30
e 8 31
e 8 49
e 8 55
e 8 58
e 8 60
e 8 61
e 8 62
e 8 64
e 8 70
e 8 76
e 8 86
e 8 90
e 8 99
e 8 103
e 8 111
e 8 115
e 8 136
e 8 145
e 8 166
e 8 176
e 8 178
e 8 184
e 8 187
e 8 192
e 9 10
e 9 22
e 9 23
e 9 36
e 9 48
e 9 81
e 10 11
e 10 12
e 10 16
e 10 17
e 10 21
e 10 27
e 10 28
e 10 32
e 10 34
e 10 39
e 10 42
e 10 45
e 10 57
e 10 69
e 10 70
e 10 74
e 10 81
e 10 101
e 10 102
e 10 103
e 10 134
e 10 141
e 10 154
e 10 163
e 10 164
e 10 171
e 10 176
e 11 13
e 11 15
e 11 17
e 11 18
e 11 22
e 11 25
e 11 29
e 11 39
e 11 52
e 11 53
e 11 62
e 11 63
e 11 72
e 11 76
e 11 78
e 11 81
e 11 85
e 11 90
e 11 94
e 11 96
e 11 97
e 11 105
e 11 109
e 11 124
e 11 127
e 11 139
e 11 144
e 11 150
e 11 161
e 11 177
e 11 184
e 11 193
e 12 54
e 12 68
e 12 84
e 12 88
e 12 95
e 12 97
e 12 116
e 12 123
e 12 162
e 12 169
e 12 177
e 13 14
e 13 15
e 13 20
e 13 25
e 13 30
e 13 33
e 13 37
e 13 40
e 13 41
e 13 42
e 13 45
e 13 47
e 13 49
e 13 50
e 13 52
e 13 57
e 13 74
e 13 91
e 13 104
e 13 114
e 13 119
e 13 120
e 13 121
e 13 138
e 13 145
e 13 156
e 13 170
e 13 177
e 13 179
e 13 182
e 14 16
e 14 23
e 14 26
e 14 33
e 14 43
e 14 63
e 14 65
e 14 95
e 14 96
e 14 111
e 14 117
e 14 158
e 15 19
e 15 42
e 15 65
e 15 72
e 15 77
e 15 101
e 15 146
e 16 18
e 16 24
e 16 35
e 16 40
e 16 44
e 16 51
e 16 69
e 16 75
e 16 77
e 16 95
e 16 102
e 16 106
e 16 107
e 16 149
e 16 160
e 16 169
e 17 27
e 17 103
e 17 113
e 18 66
e 18 84
e 18 176
e 18 195
e 19 59
e 19 66
e 19 130
e 19 160
e 19 163
e 20 22
e 20 27
e 20 28
e 20 31
e 20 36
e 20 41
e 20 47
e 20 74
e 20 75
e 20 85
e 20 114
e 20 115
e 20 131
e 20 135
e 21 163
e 21 165
e 22 23
e 22 33
e 22 35
e 22 39
e 22 48
e 22 67
e 22 75
e 22 110
e 22 115
e 22 168
e 22 169
e 22 175
e 22 188
e 22 200
e 23 41
e 23 57
e 23 67
e 23 88
e 23 100
e 23 110
e 23 143
e 23 144
e 23 145
e 23 154
e 23 157
e 23 172
e 23 183
e 24 73
e 24 79
e 24 82
e 24 88
e 24 118
e 24 135
e 24 136
e 24 146
e 25 29
e 25 30
e 25 31
e 25 37
e 25 53
e 25 54
e 25 69
e 25 71
e 25 105
e 25 153
e 25 155
e 25 195
e 26 43
e 26 58
e 26 93
e 26 168
e 26 173
e 27 59
e 27 64
e 27 71
e 27 111
e 28 35
e 28 46
e 28 66
e 28 87
e 28 100
e 28 137
e 28 139
e 29 34
e 29 51
e 29 77
e 29 80
e 29 106
e 29 170
e 29 194
e 30 44
e 30 66
e 31 38
e 31 84
e 31 105
e 31 118
e 31 196
e 32 34
e 32 117
e 32 131
e 32 144
e 32 172
e 32 183
e 33 87
e 33 132
e 33 151
e 34 45
e 35 46
e 35 59
e 35 60
e 35 110
e 35 138
e 35 157
e 35 162
e 35 188
e 36 37
e 36 43
e 36 45
e 36 51
e 36 55
e 36 91
e 36 115
e 36 148
e 37 40
e 37 49
e 37 62
e 38 44
e 38 49
e 38 54
e 38 56
e 38 72
e 38 104
e 38 122
e 38 128
e 38 132
e 38 141
e 38 178
e 39 40
e 39 54
e 39 70
e 39 80
e 39 83
e 39 86
e 39 87
e 39 140
e 39 147
e 39 158
e 39 160
e 39 182
e 39 184
e 40 71
e 40 88
e 40 108
e 40 119
e 41 78
e 41 144
e 41 190
e 42 73
e 42 195
e 43 89
e 43 90
e 43 109
e 43 172
e 43 174
e 44 47
e 44 169
e 45 89
e 45 99
e 45 110
e 45 125
e 45 129
e 45 148
e 45 151
e 45 185
e 46 61
e 46 92
e 46 164
e 47 125
e 47 157
e 48 59
e 48 63
e 48 64
e 48 67
e 48 81
e 48 84
e 48 98
e 48 100
e 48 127
e 48 174
e 48 198
e 49 50
e 49 61
e 49 68
e 49 70
e 49 77
e 49 82
e 49 92
e 49 117
e 49 132
e 50 156
e 50 159
e 51 85
e 51 94
e 51 133
e 51 200
e 52 53
e 52 72
e 52 92
e 52 143
e 52 153
e 52 192
e 53 68
e 53 69
e 53 90
e 53 134
e 53 158
e 53 183
e 53 185
e 54 56
e 54 91
e 54 94
e 54 132
e 54 142
e 54 150
e 55 58
e 55 127
e 55 171
e 55 191
e 56 63
e 56 93
e 56 114
e 56 128
e 56 161
e 56 179
e 57 61
e 57 67
e 57 71
e 57 87
e 58 111
e 58 112
e 58 174
e 59 112
e 59 120
e 59 175
e 60 65
e 60 83
e 60 107
e 60 134
e 60 154
e 60 162
e 60 185
e 60 194
e 61 97
e 61 135
e 61 155
e 61 157
e 61 168
e 61 198
e 62 68
e 62 78
e 62 79
e 62 92
e 62 99
e 62 109
e 62 120
e 62 147
e 62 165
e 62 188
e 62 193
e 63 98
e 63 151
e 64 98
e 65 94
e 66 96
e 66 197
e 67 150
e 67 180
e 69 108
e 71 114
e 72 91
e 72 121
e 72 199
e 73 74
e 73 125
e 73 130
e 73 160
e 74 86
e 74 101
e 74 133
e 74 170
e 74 181
e 75 192
e 76 166
e 77 93
e 77 125
e 77 129
e 77 130
e 77 190
e 78 113
e 78 171
e 80 118
e 81 83
e 82 108
e 82 137
e 82 151
e 82 191
e 82 197
e 83 189
e 84 121
e 84 122
e 84 129
e 84 139
e 85 179
e 87 123
e 88 121
e 88 168
e 88 186
e 89 106
e 90 102
e 90 145
e 90 158
e 90 187
e 91 96
e 91 142
e 91 156
e 91 199
e 92 95
e 92 101
e 92 128
e 92 167
e 92 170
e 92 185
e 93 99
e 93 113
e 93 186
e 94 107
e 94 123
e 94 161
e 94 175
e 96 116
e 96 137
e 96 177
e 97 167
e 97 175
e 98 173
e 98 189
e 99 143
e 99 148
e 99 163
e 99 165
e 99 200
e 100 108
e 100 165
e 101 129
e 101 187
e 102 103
e 102 118
e 102 122
e 102 124
e 102 140
e 102 141
e 103 131
e 103 152
e 105 141
e 105 194
e 105 198
e 106 112
e 106 120
e 106 173
e 107 152
e 108 153
e 109 146
e 110 167
e 112 155
e 112 161
e 112 166
e 115 124
e 115 176
e 115 190
e 116 126
e 116 182
e 117 119
e 117 124
e 117 126
e 117 137
e 117 142
e 119 135
e 119 139
e 120 156
e 120 183
e 121 189
e 122 190
e 125 152
e 125 198
e 126 199
e 127 134
e 127 172
e 129 181
e 131 133
e 131 138
e 133 173
e 133 178
e 136 184
e 136 194
e 139 143
e 139 162
e 139 167
e 139 191
e 142 186
e 143 153
e 144 186
e 144 193
e 144 196
e 145 196
e 146 149
e 146 164
e 146 193
e 147 164
e 149 150
e 157 189
e 159 171
e 159 195
e 165 174
e 169 178
e 178 182
e 180 181
e 187 199
e 187 200
e 195 197
